40
2 0 2
3 0 1
3 2 2
4 2 2
5 1 1
6 1 3
6 3 3
7 4 2
8 0 2
8 3 1
8 5 3
8 6 3
8 7 1
9 2 3
9 3 1
9 4 3
9 5 3
9 8 3
10 0 1
10 1 3
10 3 1
10 5 3
10 7 2
11 1 1
11 3 3
11 5 3
11 6 2
11 7 3
11 8 3
11 9 3
12 0 3
12 4 1
12 5 1
12 6 3
12 8 2
12 9 3
12 10 1
13 0 2
13 1 3
13 4 2
13 6 3
13 7 2
13 8 3
13 9 2
13 10 2
13 11 3
14 0 3
14 2 3
14 3 3
14 4 2
14 5 1
14 6 2
14 7 2
14 9 1
14 10 3
14 11 3
15 0 3
15 1 2
15 2 1
15 3 3
15 4 3
15 5 1
15 7 2
15 8 3
15 14 1
16 2 1
16 3 3
16 5 3
16 7 3
16 8 1
16 10 3
16 14 3
17 0 3
17 1 1
17 7 3
17 13 3
17 14 2
17 16 3
18 1 2
18 5 2
18 6 2
18 7 2
18 8 2
18 10 1
18 12 1
18 14 3
18 15 1
19 1 2
19 9 3
19 11 1
20 3 2
20 4 3
20 5 2
20 6 3
20 7 3
20 10 3
20 11 1
20 12 1
20 13 2
20 16 1
20 19 2
21 0 3
21 1 3
21 2 2
21 4 1
21 5 2
21 7 2
21 8 1
21 10 2
22 1 2
22 4 2
22 5 1
22 7 2
22 8 3
22 11 1
22 15 3
22 16 3
22 17 3
22 18 3
22 19 1
22 20 3
23 3 1
23 7 1
23 8 2
23 11 3
23 12 1
23 14 2
23 15 2
23 20 2
23 22 2
24 1 3
24 2 3
24 3 1
24 5 1
24 7 2
24 8 3
24 9 2
24 10 1
24 18 2
24 19 1
24 20 1
24 21 2
25 4 1
25 8 2
25 9 2
25 10 3
25 12 3
25 14 2
25 15 2
25 17 1
25 18 2
25 22 3
25 23 3
25 24 2
26 1 3
26 2 2
26 6 3
26 13 3
26 14 2
26 15 2
26 16 3
26 18 3
26 20 2
26 21 3
26 23 1
26 24 3
26 25 1
27 0 3
27 1 1
27 2 2
27 3 1
27 5 2
27 6 1
27 8 2
27 10 1
27 11 1
27 13 1
27 14 3
27 16 3
27 19 2
27 21 3
27 26 2
28 2 2
28 6 2
28 8 2
28 11 3
28 13 3
28 14 3
28 15 2
28 17 2
28 18 3
28 19 1
28 22 1
28 23 2
28 24 3
28 26 1
28 27 1
29 1 1
29 2 3
29 3 3
29 4 3
29 5 2
29 6 3
29 10 2
29 13 2
29 14 3
29 15 1
29 17 2
29 18 3
29 21 1
29 24 3
29 25 2
29 26 3
29 28 2
30 0 3
30 1 1
30 2 1
30 3 3
30 4 1
30 8 1
30 9 2
30 11 2
30 12 1
30 21 3
30 22 3
30 23 1
30 24 1
30 25 1
30 27 3
30 29 1
31 2 3
31 4 2
31 5 2
31 8 2
31 10 3
31 12 2
31 16 2
31 17 3
31 20 3
31 21 2
31 22 1
31 23 2
31 24 1
31 27 3
31 28 2
32 0 3
32 6 1
32 7 3
32 10 1
32 12 1
32 13 3
32 17 2
32 18 1
32 19 3
32 21 3
32 22 1
32 23 1
32 27 1
32 28 1
32 29 1
32 30 2
32 31 2
33 0 3
33 3 2
33 4 1
33 6 1
33 9 2
33 10 1
33 11 1
33 12 1
33 14 3
33 16 1
33 20 1
33 22 2
33 23 1
33 24 1
33 25 3
33 27 1
33 31 2
34 0 2
34 1 1
34 2 1
34 3 1
34 4 2
34 5 1
34 7 3
34 8 3
34 9 1
34 12 3
34 13 2
34 15 1
34 17 1
34 18 2
34 19 2
34 22 3
34 24 2
34 28 3
34 29 2
34 31 3
34 33 3
35 0 3
35 3 3
35 5 1
35 9 2
35 11 3
35 16 3
35 17 3
35 20 1
35 22 1
35 23 1
35 25 3
35 27 2
35 31 2
36 0 1
36 7 3
36 8 1
36 9 3
36 10 2
36 13 2
36 14 2
36 19 1
36 20 3
36 21 1
36 22 3
36 23 3
36 24 1
36 26 1
36 29 3
36 34 3
36 35 1
37 0 3
37 1 1
37 3 3
37 5 1
37 7 1
37 10 1
37 11 1
37 12 3
37 14 1
37 19 2
37 21 1
37 27 3
37 28 1
37 31 1
37 32 3
37 34 1
37 35 2
37 36 3
38 2 3
38 3 2
38 4 1
38 5 2
38 7 3
38 9 1
38 10 2
38 11 3
38 13 1
38 14 1
38 15 1
38 17 1
38 18 1
38 19 2
38 21 2
38 22 2
38 25 2
38 27 1
38 28 1
38 29 3
38 31 3
38 34 1
39 1 3
39 5 1
39 6 3
39 7 3
39 13 1
39 14 3
39 15 3
39 17 2
39 18 3
39 23 2
39 24 2
39 25 1
39 26 1
39 27 3
39 31 2
39 32 1
39 35 3
39 37 3
